360 357 122 
360 357 122 
360 357 122 
357 122 
357 122 
1 2 3 4 5 6 7 8 9 11 12 13 15 16 17 18 20 21 22 353 23 24 25 
1 2 3 4 5 6 7 8 9 11 12 13 15 16 17 18 20 21 22 353 23 24 25 
1 2 3 4 5 6 7 8 9 11 12 13 15 16 17 18 20 21 22 353 23 24 25 26 27
1 2 3 4 5 6 7 8 9 11 12 13 15 16 17 18 20 21 22 353 23 24 25 26 27 
293 348 
72 122 
1 2 3 4 5 6 7 8 9 11 12 13 15 16 17 18 20 21 22 353 23 24 25 26 27 28
1 2 3 4 5 6 7 8 9 11 12 13 15 16 17 18 20 21 22 353 23 24 25 26 27 28
1 2 3 4 5 6 7 8 9 11 12 13 15 16 17 18 20 21 22 353 23 24 25 26 27 29 30
1 2 3 4 5 6 7 8 9 11 12 13 15 16 17 18 20 21 22 353 23 24 25 26 27 293 348
1 2 3 4 5 6 7 8 9 11 12 13 15 16 17 18 20 21 22 353 23 24 25 26 27 72 122